NAME : sim51.78306.tour
COMMENT : Length = 78306
COMMENT : Found by LKH [Keld Helsgaun] Tue Sep 11 17:56:48 2018
TYPE : TOUR
DIMENSION : 51
TOUR_SECTION
1
2
3
31
51
17
21
44
27
24
13
5
22
41
45
26
28
32
43
40
9
29
48
33
49
38
42
37
10
8
12
19
6
34
16
36
11
14
39
15
25
46
20
35
4
30
50
18
23
7
47
-1
EOF
